# Solution for model Master Problem
# Objective value = 5.7743384853032717e+02
theta[1] 0
theta[2] 0
theta[3] 0
theta[4] 0
theta[5] 0
theta[6] 0.4
theta[7] 0
theta[8] 0
theta[9] 0
theta[10] 0
theta[11] 0
theta[12] 0
theta[13] 0
theta[14] 0
theta[15] 0
theta[16] 0
theta[17] 0
theta[18] 0
theta[19] 0
theta[20] 0
theta[21] 0.8
theta[22] 0
theta[23] 1.9999999999999996e-01
theta[24] 0
theta[25] 0
theta[26] 0
theta[27] 9.9999999999999978e-02
theta[28] 0
theta[29] 0.8
theta[30] 9.9999999999999978e-02
theta[31] 0
theta[32] 0
theta[33] 0
theta[34] 0.9
theta[35] 0
theta[36] 1.9999999999999996e-01
theta[37] 0.4
theta[38] 0
theta[39] 0.6
theta[40] 0
theta[41] 0
theta[42] 2.0000000000000007e-01
theta[43] 0.2
theta[44] 1.9999999999999996e-01
theta[45] 0
theta[46] 0
theta[47] 0
theta[48] 0
theta[49] 0
theta[50] 0.4
theta[51] 1.9999999999999996e-01
theta[52] 9.9999999999999978e-02
theta[53] 9.9999999999999978e-02
